13
0 0 1 2 3 4 5 3 2 5 3 2 3 1 3 6 7 2 7 8 6 5 2 9 9 9 4 6 5 5 3 10 6 2 1 7 9 9 10 2 1 5 11 1 2 2 12 6 7 3 10 10 9 5 9 0 2 6 7 4 9 12 12 7 0 3 8 12 6 10 9 6 12 11 1 4 8 10 7 3 8 11 12 5 0 9 4 3 5 10 6 0 11 11 3 3 5 7 12 8 
